TCS_Benchmarks/redos_fix/snort3_output_distinct_4489_4488_25_0.txt
[^\n\r]*
([^\n\r]*)([bB][yY])([^\n\r]*)
[^\n\r]*